c SSAT file for PBN ISCAS/c880_distill_ISCAS/c880_miter written by probABC
p cnf 472 1218
r 0.500000 1 0
r 0.500000 2 0
r 0.500000 3 0
r 0.500000 4 0
r 0.500000 5 0
r 0.500000 6 0
r 0.500000 7 0
r 0.500000 8 0
r 0.500000 9 0
r 0.500000 10 0
r 0.500000 11 0
r 0.500000 12 0
r 0.500000 13 0
r 0.500000 14 0
r 0.500000 15 0
r 0.500000 16 0
r 0.500000 17 0
r 0.500000 18 0
r 0.500000 19 0
r 0.500000 20 0
r 0.500000 21 0
r 0.500000 22 0
r 0.500000 23 0
r 0.500000 24 0
r 0.500000 25 0
r 0.500000 26 0
r 0.500000 27 0
r 0.500000 28 0
r 0.500000 29 0
r 0.500000 30 0
r 0.500000 31 0
r 0.500000 32 0
r 0.500000 33 0
r 0.500000 34 0
r 0.500000 35 0
r 0.500000 36 0
r 0.500000 37 0
r 0.500000 38 0
r 0.500000 39 0
r 0.500000 40 0
r 0.500000 41 0
r 0.500000 42 0
r 0.500000 43 0
r 0.500000 44 0
r 0.500000 45 0
r 0.500000 46 0
r 0.500000 47 0
r 0.500000 48 0
r 0.500000 49 0
r 0.500000 50 0
r 0.500000 51 0
r 0.500000 52 0
r 0.500000 53 0
r 0.500000 54 0
r 0.500000 55 0
r 0.500000 56 0
r 0.500000 57 0
r 0.500000 58 0
r 0.500000 59 0
r 0.500000 60 0
r 0.125000 61 0
r 0.125000 62 0
r 0.125000 63 0
r 0.125000 64 0
r 0.125000 65 0
r 0.125000 66 0
e 68 0
e 74 0
e 75 0
e 77 0
e 81 0
e 89 0
e 90 0
e 97 0
e 98 0
e 99 0
e 100 0
e 101 0
e 102 0
e 103 0
e 104 0
e 105 0
e 106 0
e 107 0
e 108 0
e 109 0
e 110 0
e 111 0
e 112 0
e 113 0
e 114 0
e 115 0
e 116 0
e 117 0
e 118 0
e 119 0
e 120 0
e 121 0
e 122 0
e 123 0
e 124 0
e 125 0
e 126 0
e 155 0
e 156 0
e 157 0
e 158 0
e 159 0
e 160 0
e 161 0
e 162 0
e 163 0
e 164 0
e 165 0
e 166 0
e 167 0
e 168 0
e 169 0
e 170 0
e 171 0
e 172 0
e 173 0
e 174 0
e 175 0
e 176 0
e 177 0
e 178 0
e 179 0
e 192 0
e 193 0
e 194 0
e 195 0
e 196 0
e 201 0
e 202 0
e 203 0
e 204 0
e 205 0
e 206 0
e 207 0
e 208 0
e 209 0
e 210 0
e 211 0
e 212 0
e 213 0
e 214 0
e 215 0
e 216 0
e 217 0
e 218 0
e 219 0
e 220 0
e 221 0
e 222 0
e 223 0
e 224 0
e 225 0
e 226 0
e 227 0
e 228 0
e 229 0
e 230 0
e 231 0
e 232 0
e 233 0
e 234 0
e 235 0
e 236 0
e 237 0
e 238 0
e 239 0
e 240 0
e 241 0
e 242 0
e 243 0
e 244 0
e 245 0
e 246 0
e 247 0
e 248 0
e 249 0
e 250 0
e 251 0
e 252 0
e 253 0
e 254 0
e 255 0
e 256 0
e 257 0
e 258 0
e 259 0
e 260 0
e 261 0
e 262 0
e 263 0
e 264 0
e 265 0
e 266 0
e 267 0
e 268 0
e 269 0
e 270 0
e 271 0
e 272 0
e 273 0
e 274 0
e 275 0
e 276 0
e 277 0
e 278 0
e 279 0
e 280 0
e 281 0
e 282 0
e 283 0
e 284 0
e 285 0
e 286 0
e 287 0
e 288 0
e 289 0
e 290 0
e 291 0
e 292 0
e 293 0
e 294 0
e 295 0
e 296 0
e 297 0
e 298 0
e 299 0
e 300 0
e 301 0
e 302 0
e 303 0
e 304 0
e 305 0
e 306 0
e 307 0
e 308 0
e 309 0
e 310 0
e 311 0
e 312 0
e 313 0
e 314 0
e 315 0
e 316 0
e 317 0
e 318 0
e 319 0
e 320 0
e 321 0
e 322 0
e 323 0
e 324 0
e 325 0
e 326 0
e 327 0
e 328 0
e 329 0
e 330 0
e 331 0
e 332 0
e 333 0
e 334 0
e 335 0
e 336 0
e 337 0
e 338 0
e 339 0
e 340 0
e 341 0
e 342 0
e 343 0
e 344 0
e 345 0
e 346 0
e 347 0
e 348 0
e 349 0
e 350 0
e 351 0
e 352 0
e 353 0
e 354 0
e 355 0
e 356 0
e 357 0
e 358 0
e 359 0
e 360 0
e 361 0
e 362 0
e 363 0
e 364 0
e 365 0
e 366 0
e 367 0
e 368 0
e 369 0
e 370 0
e 371 0
e 372 0
e 373 0
e 374 0
e 375 0
e 376 0
e 377 0
e 378 0
e 379 0
e 380 0
e 381 0
e 382 0
e 383 0
e 384 0
e 385 0
e 386 0
e 387 0
e 388 0
e 389 0
e 390 0
e 391 0
e 392 0
e 393 0
e 394 0
e 395 0
e 396 0
e 397 0
e 398 0
e 399 0
e 400 0
e 401 0
e 402 0
e 403 0
e 404 0
e 405 0
e 406 0
e 407 0
e 408 0
e 409 0
e 410 0
e 411 0
e 412 0
e 413 0
e 414 0
e 415 0
e 416 0
e 417 0
e 418 0
e 419 0
e 420 0
e 421 0
e 422 0
e 423 0
e 424 0
e 425 0
e 426 0
e 427 0
e 428 0
e 429 0
e 430 0
e 431 0
e 432 0
e 433 0
e 434 0
e 435 0
e 436 0
e 437 0
e 438 0
e 439 0
e 440 0
e 441 0
e 442 0
e 443 0
e 444 0
e 445 0
e 446 0
e 447 0
e 448 0
e 449 0
e 450 0
e 451 0
e 452 0
e 453 0
e 454 0
e 455 0
e 456 0
e 457 0
e 458 0
e 459 0
e 460 0
e 461 0
e 462 0
e 463 0
e 464 0
e 465 0
e 466 0
e 467 0
e 468 0
e 469 0
e 470 0
e 471 0
e 472 0
e 473 0
e 474 0
e 475 0
e 476 0
e 477 0
e 478 0
e 479 0
e 480 0
e 481 0
e 482 0
e 483 0
e 484 0
e 485 0
e 486 0
e 487 0
e 488 0
e 489 0
e 490 0
e 491 0
e 492 0
e 493 0
e 494 0
e 495 0
e 496 0
e 497 0
e 498 0
e 499 0
e 500 0
e 501 0
e 502 0
e 503 0
e 504 0
e 505 0
e 506 0
e 507 0
e 508 0
e 509 0
e 510 0
e 511 0
e 512 0
e 513 0
e 514 0
e 515 0
e 516 0
e 517 0
e 518 0
e 519 0
e 520 0
e 521 0
e 522 0
e 523 0
e 524 0
e 525 0
e 526 0
e 527 0
e 528 0
e 529 0
e 530 0
e 531 0
e 532 0
e 533 0
e 534 0
e 535 0
e 536 0
e 537 0
e 538 0
e 67 0
68 -6 -16 0
-68 6 0
-68 16 0
74 -1 -2 0
-74 1 0
-74 2 0
75 -3 -74 0
-75 3 0
-75 74 0
77 -1 -5 0
-77 1 0
-77 5 0
81 -11 -16 0
-81 11 0
-81 16 0
89 -9 -77 0
-89 9 0
-89 77 0
90 -10 -75 0
-90 10 0
-90 75 0
97 -24 -25 0
-97 24 0
-97 25 0
98 24 25 0
-98 -24 0
-98 -25 0
99 97 98 0
-99 -97 0
-99 -98 0
100 -26 -27 0
-100 26 0
-100 27 0
101 26 27 0
-101 -26 0
-101 -27 0
102 100 101 0
-102 -100 0
-102 -101 0
103 99 102 0
-103 -99 0
-103 -102 0
104 -99 -102 0
-104 99 0
-104 102 0
105 103 104 0
-105 -103 0
-105 -104 0
106 -32 -105 0
-106 32 0
-106 105 0
107 32 105 0
-107 -32 0
-107 -105 0
108 -61 107 0
-108 61 0
-108 -107 0
109 61 -107 0
-109 -61 0
-109 107 0
110 108 109 0
-110 -108 0
-110 -109 0
111 106 -110 0
-111 -106 0
-111 110 0
112 -28 -29 0
-112 28 0
-112 29 0
113 28 29 0
-113 -28 0
-113 -29 0
114 112 113 0
-114 -112 0
-114 -113 0
115 -30 -31 0
-115 30 0
-115 31 0
116 30 31 0
-116 -30 0
-116 -31 0
117 115 116 0
-117 -115 0
-117 -116 0
118 114 117 0
-118 -114 0
-118 -117 0
119 -114 -117 0
-119 114 0
-119 117 0
120 118 119 0
-120 -118 0
-120 -119 0
121 -33 -120 0
-121 33 0
-121 120 0
122 33 120 0
-122 -33 0
-122 -120 0
123 121 122 0
-123 -121 0
-123 -122 0
124 111 123 0
-124 -111 0
-124 -123 0
125 -111 -123 0
-125 111 0
-125 123 0
126 124 125 0
-126 -124 0
-126 -125 0
155 -17 -68 0
-155 17 0
-155 68 0
156 -89 -155 0
-156 89 0
-156 155 0
157 -10 -156 0
-157 10 0
-157 156 0
158 60 -157 0
-158 -60 0
-158 157 0
159 -11 -40 0
-159 11 0
-159 40 0
160 -89 159 0
-160 89 0
-160 -159 0
161 -4 -160 0
-161 4 0
-161 160 0
162 -1 161 0
-162 1 0
-162 -161 0
163 -39 162 0
-163 39 0
-163 -162 0
164 4 8 0
-164 -4 0
-164 -8 0
165 -4 -8 0
-165 4 0
-165 8 0
166 164 165 0
-166 -164 0
-166 -165 0
167 -11 -166 0
-167 11 0
-167 166 0
168 -40 -167 0
-168 40 0
-168 167 0
169 -89 -168 0
-169 89 0
-169 168 0
170 -9 -74 0
-170 9 0
-170 74 0
171 -4 -170 0
-171 4 0
-171 170 0
172 -8 -81 0
-172 8 0
-172 81 0
173 -171 172 0
-173 171 0
-173 -172 0
174 169 173 0
-174 -169 0
-174 -173 0
175 -31 174 0
-175 31 0
-175 -174 0
176 163 175 0
-176 -163 0
-176 -175 0
177 158 -176 0
-177 -158 0
-177 176 0
178 48 -177 0
-178 -48 0
-178 177 0
179 -48 177 0
-179 48 0
-179 -177 0
192 -8 -11 0
-192 8 0
-192 11 0
193 -12 -192 0
-193 12 0
-193 192 0
194 -13 -193 0
-194 13 0
-194 193 0
195 -90 -194 0
-195 90 0
-195 194 0
196 -14 -195 0
-196 14 0
-196 195 0
201 -27 -50 0
-201 27 0
-201 50 0
202 -35 162 0
-202 35 0
-202 -162 0
203 -28 174 0
-203 28 0
-203 -174 0
204 202 203 0
-204 -202 0
-204 -203 0
205 158 -204 0
-205 -158 0
-205 204 0
206 45 -205 0
-206 -45 0
-206 205 0
207 -45 205 0
-207 45 0
-207 -205 0
208 206 207 0
-208 -206 0
-208 -207 0
209 -36 162 0
-209 36 0
-209 -162 0
210 -29 174 0
-210 29 0
-210 -174 0
211 209 210 0
-211 -209 0
-211 -210 0
212 158 -211 0
-212 -158 0
-212 211 0
213 -46 212 0
-213 46 0
-213 -212 0
214 46 -212 0
-214 -46 0
-214 212 0
215 -37 162 0
-215 37 0
-215 -162 0
216 -30 174 0
-216 30 0
-216 -174 0
217 215 216 0
-217 -215 0
-217 -216 0
218 158 -217 0
-218 -158 0
-218 217 0
219 -47 218 0
-219 47 0
-219 -218 0
220 -62 219 0
-220 62 0
-220 -219 0
221 62 -219 0
-221 -62 0
-221 219 0
222 220 221 0
-222 -220 0
-222 -221 0
223 214 222 0
-223 -214 0
-223 -222 0
224 47 -218 0
-224 -47 0
-224 218 0
225 214 224 0
-225 -214 0
-225 -224 0
226 -179 -225 0
-226 179 0
-226 225 0
227 178 -225 0
-227 -178 0
-227 225 0
228 -58 -227 0
-228 58 0
-228 227 0
229 213 223 0
-229 -213 0
-229 -223 0
230 226 -229 0
-230 -226 0
-230 229 0
231 228 -230 0
-231 -228 0
-231 230 0
232 208 -231 0
-232 -208 0
-232 231 0
233 -208 231 0
-233 208 0
-233 -231 0
234 232 233 0
-234 -232 0
-234 -233 0
235 -51 -234 0
-235 51 0
-235 234 0
236 201 235 0
-236 -201 0
-236 -235 0
237 -52 -208 0
-237 52 0
-237 208 0
238 -53 -207 0
-238 53 0
-238 207 0
239 237 238 0
-239 -237 0
-239 -238 0
240 -54 205 0
-240 54 0
-240 -205 0
241 -45 -196 0
-241 45 0
-241 196 0
242 240 241 0
-242 -240 0
-242 -241 0
243 -236 -239 0
-243 236 0
-243 239 0
244 -242 -243 0
-244 242 0
-244 243 0
245 -28 -50 0
-245 28 0
-245 50 0
246 213 214 0
-246 -213 0
-246 -214 0
247 -179 224 0
-247 179 0
-247 -224 0
248 178 224 0
-248 -178 0
-248 -224 0
249 -58 -248 0
-249 58 0
-249 248 0
250 -63 249 0
-250 63 0
-250 -249 0
251 63 -249 0
-251 -63 0
-251 249 0
252 250 251 0
-252 -250 0
-252 -251 0
253 -222 247 0
-253 222 0
-253 -247 0
254 -252 -253 0
-254 252 0
-254 253 0
255 246 -254 0
-255 -246 0
-255 254 0
256 -246 254 0
-256 246 0
-256 -254 0
257 255 256 0
-257 -255 0
-257 -256 0
258 -51 -257 0
-258 51 0
-258 257 0
259 245 258 0
-259 -245 0
-259 -258 0
260 -52 -246 0
-260 52 0
-260 246 0
261 -53 -213 0
-261 53 0
-261 213 0
262 260 261 0
-262 -260 0
-262 -261 0
263 -55 -56 0
-263 55 0
-263 56 0
264 -54 212 0
-264 54 0
-264 -212 0
265 263 264 0
-265 -263 0
-265 -264 0
266 -46 -196 0
-266 46 0
-266 196 0
267 -259 -262 0
-267 259 0
-267 262 0
268 -265 -267 0
-268 265 0
-268 267 0
269 266 -268 0
-269 -266 0
-269 268 0
270 -29 -50 0
-270 29 0
-270 50 0
271 -222 224 0
-271 222 0
-271 -224 0
272 -58 178 0
-272 58 0
-272 -178 0
273 179 272 0
-273 -179 0
-273 -272 0
274 271 -273 0
-274 -271 0
-274 273 0
275 -271 273 0
-275 271 0
-275 -273 0
276 274 275 0
-276 -274 0
-276 -275 0
277 -51 -276 0
-277 51 0
-277 276 0
278 270 277 0
-278 -270 0
-278 -277 0
279 -52 -271 0
-279 52 0
-279 271 0
280 -53 222 0
-280 53 0
-280 -222 0
281 279 280 0
-281 -279 0
-281 -280 0
282 -64 281 0
-282 64 0
-282 -281 0
283 64 -281 0
-283 -64 0
-283 281 0
284 282 283 0
-284 -282 0
-284 -283 0
285 -55 -57 0
-285 55 0
-285 57 0
286 -54 218 0
-286 54 0
-286 -218 0
287 285 286 0
-287 -285 0
-287 -286 0
288 -47 -196 0
-288 47 0
-288 196 0
289 -278 284 0
-289 278 0
-289 -284 0
290 -287 -289 0
-290 287 0
-290 289 0
291 288 -290 0
-291 -288 0
-291 290 0
292 -2 -34 0
-292 2 0
-292 34 0
293 -24 174 0
-293 24 0
-293 -174 0
294 292 293 0
-294 -292 0
-294 -293 0
295 -10 -160 0
-295 10 0
-295 160 0
296 -35 -295 0
-296 35 0
-296 295 0
297 -4 -89 0
-297 4 0
-297 89 0
298 -155 -297 0
-298 155 0
-298 297 0
299 60 -298 0
-299 -60 0
-299 298 0
300 296 299 0
-300 -296 0
-300 -299 0
301 -294 -300 0
-301 294 0
-301 300 0
302 -41 301 0
-302 41 0
-302 -301 0
303 -9 -34 0
-303 9 0
-303 34 0
304 -25 174 0
-304 25 0
-304 -174 0
305 303 304 0
-305 -303 0
-305 -304 0
306 -36 -295 0
-306 36 0
-306 295 0
307 299 306 0
-307 -299 0
-307 -306 0
308 -65 307 0
-308 65 0
-308 -307 0
309 65 -307 0
-309 -65 0
-309 307 0
310 308 309 0
-310 -308 0
-310 -309 0
311 -305 310 0
-311 305 0
-311 -310 0
312 -42 311 0
-312 42 0
-312 -311 0
313 42 -311 0
-313 -42 0
-313 311 0
314 -4 -34 0
-314 4 0
-314 34 0
315 -26 174 0
-315 26 0
-315 -174 0
316 314 315 0
-316 -314 0
-316 -315 0
317 -37 -295 0
-317 37 0
-317 295 0
318 299 317 0
-318 -299 0
-318 -317 0
319 -316 -318 0
-319 316 0
-319 318 0
320 -43 319 0
-320 43 0
-320 -319 0
321 313 -320 0
-321 -313 0
-321 320 0
322 43 -319 0
-322 -43 0
-322 319 0
323 -34 -38 0
-323 34 0
-323 38 0
324 -27 174 0
-324 27 0
-324 -174 0
325 323 324 0
-325 -323 0
-325 -324 0
326 -39 -295 0
-326 39 0
-326 295 0
327 299 326 0
-327 -299 0
-327 -326 0
328 -325 -327 0
-328 325 0
-328 327 0
329 -44 328 0
-329 44 0
-329 -328 0
330 313 322 0
-330 -313 0
-330 -322 0
331 -329 -330 0
-331 329 0
-331 330 0
332 44 -328 0
-332 -44 0
-332 328 0
333 206 231 0
-333 -206 0
-333 -231 0
334 207 333 0
-334 -207 0
-334 -333 0
335 -330 332 0
-335 330 0
-335 -332 0
336 334 -335 0
-336 -334 0
-336 335 0
337 312 321 0
-337 -312 0
-337 -321 0
338 331 -337 0
-338 -331 0
-338 337 0
339 336 -338 0
-339 -336 0
-339 338 0
340 41 -301 0
-340 -41 0
-340 301 0
341 339 340 0
-341 -339 0
-341 -340 0
342 302 341 0
-342 -302 0
-342 -341 0
343 -26 -50 0
-343 26 0
-343 50 0
344 329 332 0
-344 -329 0
-344 -332 0
345 -334 344 0
-345 334 0
-345 -344 0
346 334 -344 0
-346 -334 0
-346 344 0
347 345 346 0
-347 -345 0
-347 -346 0
348 -51 -347 0
-348 51 0
-348 347 0
349 343 348 0
-349 -343 0
-349 -348 0
350 -52 -344 0
-350 52 0
-350 344 0
351 -53 -329 0
-351 53 0
-351 329 0
352 350 351 0
-352 -350 0
-352 -351 0
353 -54 328 0
-353 54 0
-353 -328 0
354 -44 -196 0
-354 44 0
-354 196 0
355 353 354 0
-355 -353 0
-355 -354 0
356 -349 -352 0
-356 349 0
-356 352 0
357 -355 -356 0
-357 355 0
-357 356 0
358 -50 -60 0
-358 50 0
-358 60 0
359 302 340 0
-359 -302 0
-359 -340 0
360 -339 359 0
-360 339 0
-360 -359 0
361 339 -359 0
-361 -339 0
-361 359 0
362 360 361 0
-362 -360 0
-362 -361 0
363 -51 -362 0
-363 51 0
-363 362 0
364 358 363 0
-364 -358 0
-364 -363 0
365 -52 -359 0
-365 52 0
-365 359 0
366 -53 -302 0
-366 53 0
-366 302 0
367 365 366 0
-367 -365 0
-367 -366 0
368 -54 301 0
-368 54 0
-368 -301 0
369 -41 -196 0
-369 41 0
-369 196 0
370 368 369 0
-370 -368 0
-370 -369 0
371 -364 -367 0
-371 364 0
-371 367 0
372 -370 -371 0
-372 370 0
-372 371 0
373 -24 -50 0
-373 24 0
-373 50 0
374 312 313 0
-374 -312 0
-374 -313 0
375 322 -329 0
-375 -322 0
-375 329 0
376 322 332 0
-376 -322 0
-376 -332 0
377 334 -376 0
-377 -334 0
-377 376 0
378 320 375 0
-378 -320 0
-378 -375 0
379 377 -378 0
-379 -377 0
-379 378 0
380 374 -379 0
-380 -374 0
-380 379 0
381 -374 379 0
-381 374 0
-381 -379 0
382 380 381 0
-382 -380 0
-382 -381 0
383 -51 -382 0
-383 51 0
-383 382 0
384 373 383 0
-384 -373 0
-384 -383 0
385 -52 -374 0
-385 52 0
-385 374 0
386 -53 -312 0
-386 53 0
-386 312 0
387 385 386 0
-387 -385 0
-387 -386 0
388 -54 311 0
-388 54 0
-388 -311 0
389 -42 -196 0
-389 42 0
-389 196 0
390 388 389 0
-390 -388 0
-390 -389 0
391 -384 -387 0
-391 384 0
-391 387 0
392 -390 -391 0
-392 390 0
-392 391 0
393 -25 -50 0
-393 25 0
-393 50 0
394 320 322 0
-394 -320 0
-394 -322 0
395 332 334 0
-395 -332 0
-395 -334 0
396 329 395 0
-396 -329 0
-396 -395 0
397 394 -396 0
-397 -394 0
-397 396 0
398 -394 396 0
-398 394 0
-398 -396 0
399 397 398 0
-399 -397 0
-399 -398 0
400 -51 -399 0
-400 51 0
-400 399 0
401 393 400 0
-401 -393 0
-401 -400 0
402 -52 -394 0
-402 52 0
-402 394 0
403 -66 402 0
-403 66 0
-403 -402 0
404 66 -402 0
-404 -66 0
-404 402 0
405 403 404 0
-405 -403 0
-405 -404 0
406 -53 -320 0
-406 53 0
-406 320 0
407 -405 406 0
-407 405 0
-407 -406 0
408 -54 319 0
-408 54 0
-408 -319 0
409 -43 -196 0
-409 43 0
-409 196 0
410 408 409 0
-410 -408 0
-410 -409 0
411 -401 -407 0
-411 401 0
-411 407 0
412 -410 -411 0
-412 410 0
-412 411 0
413 106 107 0
-413 -106 0
-413 -107 0
414 123 413 0
-414 -123 0
-414 -413 0
415 -123 -413 0
-415 123 0
-415 413 0
416 414 415 0
-416 -414 0
-416 -415 0
417 214 -219 0
-417 -214 0
-417 219 0
418 213 417 0
-418 -213 0
-418 -417 0
419 226 -418 0
-419 -226 0
-419 418 0
420 228 -419 0
-420 -228 0
-420 419 0
421 208 -420 0
-421 -208 0
-421 420 0
422 -208 420 0
-422 208 0
-422 -420 0
423 421 422 0
-423 -421 0
-423 -422 0
424 -51 -423 0
-424 51 0
-424 423 0
425 201 424 0
-425 -201 0
-425 -424 0
426 -239 -425 0
-426 239 0
-426 425 0
427 -242 -426 0
-427 242 0
-427 426 0
428 219 247 0
-428 -219 0
-428 -247 0
429 249 -428 0
-429 -249 0
-429 428 0
430 246 -429 0
-430 -246 0
-430 429 0
431 -246 429 0
-431 246 0
-431 -429 0
432 430 431 0
-432 -430 0
-432 -431 0
433 -51 -432 0
-433 51 0
-433 432 0
434 245 433 0
-434 -245 0
-434 -433 0
435 -262 -434 0
-435 262 0
-435 434 0
436 -265 -435 0
-436 265 0
-436 435 0
437 266 -436 0
-437 -266 0
-437 436 0
438 219 224 0
-438 -219 0
-438 -224 0
439 -273 438 0
-439 273 0
-439 -438 0
440 273 -438 0
-440 -273 0
-440 438 0
441 439 440 0
-441 -439 0
-441 -440 0
442 -51 -441 0
-442 51 0
-442 441 0
443 270 442 0
-443 -270 0
-443 -442 0
444 -52 -438 0
-444 52 0
-444 438 0
445 -53 -219 0
-445 53 0
-445 219 0
446 444 445 0
-446 -444 0
-446 -445 0
447 -443 -446 0
-447 443 0
-447 446 0
448 -287 -447 0
-448 287 0
-448 447 0
449 288 -448 0
-449 -288 0
-449 448 0
450 -305 -307 0
-450 305 0
-450 307 0
451 -42 450 0
-451 42 0
-451 -450 0
452 42 -450 0
-452 -42 0
-452 450 0
453 -320 452 0
-453 320 0
-453 -452 0
454 322 452 0
-454 -322 0
-454 -452 0
455 -329 -454 0
-455 329 0
-455 454 0
456 206 420 0
-456 -206 0
-456 -420 0
457 207 456 0
-457 -207 0
-457 -456 0
458 332 -454 0
-458 -332 0
-458 454 0
459 457 -458 0
-459 -457 0
-459 458 0
460 451 453 0
-460 -451 0
-460 -453 0
461 455 -460 0
-461 -455 0
-461 460 0
462 459 -461 0
-462 -459 0
-462 461 0
463 340 462 0
-463 -340 0
-463 -462 0
464 302 463 0
-464 -302 0
-464 -463 0
465 344 -457 0
-465 -344 0
-465 457 0
466 -344 457 0
-466 344 0
-466 -457 0
467 465 466 0
-467 -465 0
-467 -466 0
468 -51 -467 0
-468 51 0
-468 467 0
469 343 468 0
-469 -343 0
-469 -468 0
470 -352 -469 0
-470 352 0
-470 469 0
471 -355 -470 0
-471 355 0
-471 470 0
472 359 -462 0
-472 -359 0
-472 462 0
473 -359 462 0
-473 359 0
-473 -462 0
474 472 473 0
-474 -472 0
-474 -473 0
475 -51 -474 0
-475 51 0
-475 474 0
476 358 475 0
-476 -358 0
-476 -475 0
477 -367 -476 0
-477 367 0
-477 476 0
478 -370 -477 0
-478 370 0
-478 477 0
479 451 452 0
-479 -451 0
-479 -452 0
480 -376 457 0
-480 376 0
-480 -457 0
481 -378 480 0
-481 378 0
-481 -480 0
482 479 -481 0
-482 -479 0
-482 481 0
483 -479 481 0
-483 479 0
-483 -481 0
484 482 483 0
-484 -482 0
-484 -483 0
485 -51 -484 0
-485 51 0
-485 484 0
486 373 485 0
-486 -373 0
-486 -485 0
487 -52 -479 0
-487 52 0
-487 479 0
488 -53 -451 0
-488 53 0
-488 451 0
489 487 488 0
-489 -487 0
-489 -488 0
490 -54 450 0
-490 54 0
-490 -450 0
491 389 490 0
-491 -389 0
-491 -490 0
492 -486 -489 0
-492 486 0
-492 489 0
493 -491 -492 0
-493 491 0
-493 492 0
494 332 457 0
-494 -332 0
-494 -457 0
495 329 494 0
-495 -329 0
-495 -494 0
496 394 -495 0
-496 -394 0
-496 495 0
497 -394 495 0
-497 394 0
-497 -495 0
498 496 497 0
-498 -496 0
-498 -497 0
499 -51 -498 0
-499 51 0
-499 498 0
500 393 499 0
-500 -393 0
-500 -499 0
501 402 406 0
-501 -402 0
-501 -406 0
502 -500 -501 0
-502 500 0
-502 501 0
503 -410 -502 0
-503 410 0
-503 502 0
504 126 -416 0
-504 -126 0
-504 416 0
505 -126 416 0
-505 126 0
-505 -416 0
506 504 505 0
-506 -504 0
-506 -505 0
507 -244 427 0
-507 244 0
-507 -427 0
508 244 -427 0
-508 -244 0
-508 427 0
509 507 508 0
-509 -507 0
-509 -508 0
510 -269 437 0
-510 269 0
-510 -437 0
511 269 -437 0
-511 -269 0
-511 437 0
512 510 511 0
-512 -510 0
-512 -511 0
513 -291 449 0
-513 291 0
-513 -449 0
514 291 -449 0
-514 -291 0
-514 449 0
515 513 514 0
-515 -513 0
-515 -514 0
516 -342 464 0
-516 342 0
-516 -464 0
517 342 -464 0
-517 -342 0
-517 464 0
518 516 517 0
-518 -516 0
-518 -517 0
519 -357 471 0
-519 357 0
-519 -471 0
520 357 -471 0
-520 -357 0
-520 471 0
521 519 520 0
-521 -519 0
-521 -520 0
522 -372 478 0
-522 372 0
-522 -478 0
523 372 -478 0
-523 -372 0
-523 478 0
524 522 523 0
-524 -522 0
-524 -523 0
525 -392 493 0
-525 392 0
-525 -493 0
526 392 -493 0
-526 -392 0
-526 493 0
527 525 526 0
-527 -525 0
-527 -526 0
528 -412 503 0
-528 412 0
-528 -503 0
529 412 -503 0
-529 -412 0
-529 503 0
530 528 529 0
-530 -528 0
-530 -529 0
531 -506 -509 0
-531 506 0
-531 509 0
532 -515 -518 0
-532 515 0
-532 518 0
533 -512 -532 0
-533 512 0
-533 532 0
534 -521 -524 0
-534 521 0
-534 524 0
535 -527 -530 0
-535 527 0
-535 530 0
536 -534 -535 0
-536 534 0
-536 535 0
537 -533 -536 0
-537 533 0
-537 536 0
538 -531 -537 0
-538 531 0
-538 537 0
67 538 0
-67 -538 0
67 0
